8010
43, 33, 51, 12, 11, 52, 14, 13, 27, 28, 26, 47, 29, 30, 2, 7, 42, 21, 17, 3, 18, 31, 23, 20, 50, 16, 44, 34, 35, 36, 39, 40, 38, 48, 24, 5, 15, 6, 4, 25, 46, 37, 49, 1, 22, 32, 45, 19, 41, 8, 9, 10
